69 98 88 73 78 79 7 8 46 6 100 
71 67 62 50 56 91 80 
81 61 68 
82 52 99 86 57 22 20 49 24 
72 42 39 36 38 44 40 43 54 96 93 
14 47 16 15 11 12 53 90 
64 19 23 21 18 76 51 85 84 94 41 37 35 55 13 17 60 
65 83 59 75 87 9 10 97 74 66 
92 95 63 33 31 29 27 30 28 26 34 32 89 48 25 77 58 
45 2 5 3 1 4 70 
